TIME 50
2886
8104
2571
8104
3207
8104
2747
8104
2454
8104
2789
8104
2818
8104
2673
8104
3286
8104
2482
8104
TIME 100
3377
8104
2531
8104
3017
8104
2456
8104
2923
8104
2885
8104
3495
8104
3342
8104
2417
8104
2893
8104
TIME 150
2791
8104
3737
8104
2778
8104
3128
8104
3405
8104
3161
8104
3458
8104
3699
8104
3545
8104
3238
8104
TIME 200
3346
8104
2938
8104
3734
8104
3220
8104
3064
8104
3816
8104
3414
8104
2904
8104
3327
8104
3307
8104
TIME 250
3299
8104
3097
8104
3412
8104
3594
8104
3740
8104
3593
8104
3390
8104
3050
8104
2075
8104
3409
8104
TIME 300
3828
8104
3581
8104
